8
2147483647 64 65 88 24 18 21 21 
64 2147483647 61 74 20 25 99 44 
65 61 2147483647 30 9 50 53 69 
88 74 30 2147483647 100 59 27 100 
24 20 9 100 2147483647 29 36 89 
18 25 50 59 29 2147483647 87 19 
21 99 53 27 36 87 2147483647 59 
21 44 69 100 89 19 59 2147483647 
